# Solution for model TSP
# Objective value = 10628
0_1 0
0_2 0
0_3 0
0_4 0
0_5 0
0_6 0
0_7 1
0_8 1
0_9 0
0_10 0
0_11 0
0_12 0
0_13 0
0_14 0
0_15 0
0_16 0
0_17 0
0_18 0
0_19 0
0_20 0
0_21 0
0_22 0
0_23 0
0_24 0
0_25 0
0_26 0
0_27 0
0_28 0
0_29 0
0_30 0
0_31 0
0_32 0
0_33 0
0_34 0
0_35 0
0_36 0
0_37 0
0_38 0
0_39 0
0_40 0
0_41 0
0_42 0
0_43 0
0_44 0
0_45 0
0_46 0
0_47 0
1_2 0
1_3 0
1_4 0
1_5 0
1_6 0
1_7 0
1_8 0
1_9 0
1_10 0
1_11 0
1_12 0
1_13 0
1_14 0
1_15 0
1_16 0
1_17 0
1_18 0
1_19 0
1_20 0
1_21 0
1_22 0
1_23 0
1_24 0
1_25 1
1_26 0
1_27 0
1_28 1
1_29 0
1_30 0
1_31 0
1_32 0
1_33 0
1_34 0
1_35 0
1_36 0
1_37 0
1_38 0
1_39 0
1_40 0
1_41 0
1_42 0
1_43 0
1_44 0
1_45 0
1_46 0
1_47 0
2_3 0
2_4 0
2_5 0
2_6 0
2_7 0
2_8 0
2_9 0
2_10 0
2_11 0
2_12 0
2_13 0
2_14 0
2_15 0
2_16 0
2_17 0
2_18 0
2_19 0
2_20 0
2_21 1
2_22 1
2_23 0
2_24 0
2_25 0
2_26 0
2_27 0
2_28 0
2_29 0
2_30 0
2_31 0
2_32 0
2_33 0
2_34 0
2_35 0
2_36 0
2_37 0
2_38 0
2_39 0
2_40 0
2_41 0
2_42 0
2_43 0
2_44 0
2_45 0
2_46 0
2_47 0
3_4 0
3_5 0
3_6 0
3_7 0
3_8 0
3_9 0
3_10 0
3_11 0
3_12 0
3_13 0
3_14 0
3_15 0
3_16 0
3_17 0
3_18 0
3_19 0
3_20 0
3_21 0
3_22 0
3_23 0
3_24 0
3_25 1
3_26 0
3_27 0
3_28 0
3_29 0
3_30 0
3_31 0
3_32 0
3_33 0
3_34 1
3_35 0
3_36 0
3_37 0
3_38 0
3_39 0
3_40 0
3_41 0
3_42 0
3_43 0
3_44 0
3_45 0
3_46 0
3_47 0
4_5 0
4_6 0
4_7 0
4_8 0
4_9 0
4_10 0
4_11 0
4_12 0
4_13 0
4_14 0
4_15 0
4_16 0
4_17 0
4_18 0
4_19 0
4_20 0
4_21 0
4_22 0
4_23 0
4_24 0
4_25 0
4_26 0
4_27 0
4_28 0
4_29 0
4_30 0
4_31 0
4_32 0
4_33 0
4_34 0
4_35 0
4_36 0
4_37 0
4_38 0
4_39 0
4_40 0
4_41 1
4_42 0
4_43 0
4_44 0
4_45 0
4_46 0
4_47 1
5_6 0
5_7 0
5_8 0
5_9 0
5_10 0
5_11 0
5_12 0
5_13 0
5_14 0
5_15 0
5_16 0
5_17 0
5_18 0
5_19 0
5_20 0
5_21 0
5_22 0
5_23 0
5_24 0
5_25 0
5_26 0
5_27 1
5_28 0
5_29 0
5_30 0
5_31 0
5_32 0
5_33 0
5_34 0
5_35 0
5_36 1
5_37 0
5_38 0
5_39 0
5_40 0
5_41 0
5_42 0
5_43 0
5_44 0
5_45 0
5_46 0
5_47 0
6_7 0
6_8 0
6_9 0
6_10 0
6_11 0
6_12 0
6_13 0
6_14 0
6_15 0
6_16 0
6_17 1
6_18 0
6_19 0
6_20 0
6_21 0
6_22 0
6_23 0
6_24 0
6_25 0
6_26 0
6_27 1
6_28 0
6_29 0
6_30 0
6_31 0
6_32 0
6_33 0
6_34 0
6_35 0
6_36 0
6_37 0
6_38 0
6_39 0
6_40 0
6_41 0
6_42 0
6_43 0
6_44 0
6_45 0
6_46 0
6_47 0
7_8 0
7_9 0
7_10 0
7_11 0
7_12 0
7_13 0
7_14 0
7_15 0
7_16 0
7_17 0
7_18 0
7_19 0
7_20 0
7_21 0
7_22 0
7_23 0
7_24 0
7_25 0
7_26 0
7_27 0
7_28 0
7_29 0
7_30 0
7_31 0
7_32 0
7_33 0
7_34 0
7_35 0
7_36 0
7_37 1
7_38 0
7_39 0
7_40 0
7_41 0
7_42 0
7_43 0
7_44 0
7_45 0
7_46 0
7_47 0
8_9 0
8_10 0
8_11 0
8_12 0
8_13 0
8_14 0
8_15 0
8_16 0
8_17 0
8_18 0
8_19 0
8_20 0
8_21 0
8_22 0
8_23 0
8_24 0
8_25 0
8_26 0
8_27 0
8_28 0
8_29 0
8_30 0
8_31 0
8_32 0
8_33 0
8_34 0
8_35 0
8_36 0
8_37 0
8_38 0
8_39 1
8_40 0
8_41 0
8_42 0
8_43 0
8_44 0
8_45 0
8_46 0
8_47 0
9_10 0
9_11 0
9_12 0
9_13 0
9_14 0
9_15 0
9_16 0
9_17 0
9_18 0
9_19 0
9_20 0
9_21 0
9_22 0
9_23 1
9_24 0
9_25 0
9_26 0
9_27 0
9_28 0
9_29 0
9_30 0
9_31 0
9_32 0
9_33 0
9_34 0
9_35 0
9_36 0
9_37 0
9_38 0
9_39 0
9_40 0
9_41 0
9_42 0
9_43 0
9_44 1
9_45 0
9_46 0
9_47 0
10_11 1
10_12 1
10_13 0
10_14 0
10_15 0
10_16 0
10_17 0
10_18 0
10_19 0
10_20 0
10_21 0
10_22 0
10_23 0
10_24 0
10_25 0
10_26 0
10_27 0
10_28 0
10_29 0
10_30 0
10_31 0
10_32 0
10_33 0
10_34 0
10_35 0
10_36 0
10_37 0
10_38 0
10_39 0
10_40 0
10_41 0
10_42 0
10_43 0
10_44 0
10_45 0
10_46 0
10_47 0
11_12 0
11_13 0
11_14 1
11_15 0
11_16 0
11_17 0
11_18 0
11_19 0
11_20 0
11_21 0
11_22 0
11_23 0
11_24 0
11_25 0
11_26 0
11_27 0
11_28 0
11_29 0
11_30 0
11_31 0
11_32 0
11_33 0
11_34 0
11_35 0
11_36 0
11_37 0
11_38 0
11_39 0
11_40 0
11_41 0
11_42 0
11_43 0
11_44 0
11_45 0
11_46 0
11_47 0
12_13 0
12_14 0
12_15 0
12_16 0
12_17 0
12_18 0
12_19 0
12_20 0
12_21 0
12_22 0
12_23 0
12_24 1
12_25 0
12_26 0
12_27 0
12_28 0
12_29 0
12_30 0
12_31 0
12_32 0
12_33 0
12_34 0
12_35 0
12_36 0
12_37 0
12_38 0
12_39 0
12_40 0
12_41 0
12_42 0
12_43 0
12_44 0
12_45 0
12_46 0
12_47 0
13_14 0
13_15 0
13_16 0
13_17 0
13_18 0
13_19 0
13_20 0
13_21 0
13_22 1
13_23 0
13_24 1
13_25 0
13_26 0
13_27 0
13_28 0
13_29 0
13_30 0
13_31 0
13_32 0
13_33 0
13_34 0
13_35 0
13_36 0
13_37 0
13_38 0
13_39 0
13_40 0
13_41 0
13_42 0
13_43 0
13_44 0
13_45 0
13_46 0
13_47 0
14_15 0
14_16 0
14_17 0
14_18 0
14_19 0
14_20 0
14_21 0
14_22 0
14_23 0
14_24 0
14_25 0
14_26 0
14_27 0
14_28 0
14_29 0
14_30 0
14_31 0
14_32 0
14_33 0
14_34 0
14_35 0
14_36 0
14_37 0
14_38 0
14_39 1
14_40 0
14_41 0
14_42 0
14_43 0
14_44 0
14_45 0
14_46 0
14_47 0
15_16 0
15_17 0
15_18 0
15_19 0
15_20 0
15_21 1
15_22 0
15_23 0
15_24 0
15_25 0
15_26 0
15_27 0
15_28 0
15_29 0
15_30 0
15_31 0
15_32 0
15_33 0
15_34 0
15_35 0
15_36 0
15_37 0
15_38 0
15_39 0
15_40 1
15_41 0
15_42 0
15_43 0
15_44 0
15_45 0
15_46 0
15_47 0
16_17 0
16_18 0
16_19 0
16_20 0
16_21 0
16_22 0
16_23 0
16_24 0
16_25 0
16_26 1
16_27 0
16_28 0
16_29 0
16_30 0
16_31 0
16_32 0
16_33 0
16_34 0
16_35 0
16_36 0
16_37 0
16_38 0
16_39 0
16_40 0
16_41 0
16_42 1
16_43 0
16_44 0
16_45 0
16_46 0
16_47 0
17_18 0
17_19 0
17_20 0
17_21 0
17_22 0
17_23 0
17_24 0
17_25 0
17_26 0
17_27 0
17_28 0
17_29 0
17_30 0
17_31 0
17_32 0
17_33 0
17_34 0
17_35 0
17_36 0
17_37 0
17_38 0
17_39 0
17_40 0
17_41 0
17_42 0
17_43 1
17_44 0
17_45 0
17_46 0
17_47 0
18_19 0
18_20 0
18_21 0
18_22 0
18_23 0
18_24 0
18_25 0
18_26 1
18_27 0
18_28 0
18_29 0
18_30 0
18_31 0
18_32 0
18_33 0
18_34 0
18_35 0
18_36 1
18_37 0
18_38 0
18_39 0
18_40 0
18_41 0
18_42 0
18_43 0
18_44 0
18_45 0
18_46 0
18_47 0
19_20 0
19_21 0
19_22 0
19_23 0
19_24 0
19_25 0
19_26 0
19_27 0
19_28 0
19_29 0
19_30 0
19_31 0
19_32 1
19_33 0
19_34 0
19_35 0
19_36 0
19_37 0
19_38 0
19_39 0
19_40 0
19_41 0
19_42 0
19_43 0
19_44 0
19_45 0
19_46 1
19_47 0
20_21 0
20_22 0
20_23 0
20_24 0
20_25 0
20_26 0
20_27 0
20_28 0
20_29 0
20_30 0
20_31 1
20_32 0
20_33 0
20_34 0
20_35 0
20_36 0
20_37 0
20_38 0
20_39 0
20_40 0
20_41 0
20_42 0
20_43 0
20_44 0
20_45 0
20_46 1
20_47 0
21_22 0
21_23 0
21_24 0
21_25 0
21_26 0
21_27 0
21_28 0
21_29 0
21_30 0
21_31 0
21_32 0
21_33 0
21_34 0
21_35 0
21_36 0
21_37 0
21_38 0
21_39 0
21_40 0
21_41 0
21_42 0
21_43 0
21_44 0
21_45 0
21_46 0
21_47 0
22_23 0
22_24 0
22_25 0
22_26 0
22_27 0
22_28 0
22_29 0
22_30 0
22_31 0
22_32 0
22_33 0
22_34 0
22_35 0
22_36 0
22_37 0
22_38 0
22_39 0
22_40 0
22_41 0
22_42 0
22_43 0
22_44 0
22_45 0
22_46 0
22_47 0
23_24 0
23_25 0
23_26 0
23_27 0
23_28 0
23_29 0
23_30 0
23_31 0
23_32 0
23_33 0
23_34 0
23_35 0
23_36 0
23_37 0
23_38 0
23_39 0
23_40 0
23_41 1
23_42 0
23_43 0
23_44 0
23_45 0
23_46 0
23_47 0
24_25 0
24_26 0
24_27 0
24_28 0
24_29 0
24_30 0
24_31 0
24_32 0
24_33 0
24_34 0
24_35 0
24_36 0
24_37 0
24_38 0
24_39 0
24_40 0
24_41 0
24_42 0
24_43 0
24_44 0
24_45 0
24_46 0
24_47 0
25_26 0
25_27 0
25_28 0
25_29 0
25_30 0
25_31 0
25_32 0
25_33 0
25_34 0
25_35 0
25_36 0
25_37 0
25_38 0
25_39 0
25_40 0
25_41 0
25_42 0
25_43 0
25_44 0
25_45 0
25_46 0
25_47 0
26_27 0
26_28 0
26_29 0
26_30 0
26_31 0
26_32 0
26_33 0
26_34 0
26_35 0
26_36 0
26_37 0
26_38 0
26_39 0
26_40 0
26_41 0
26_42 0
26_43 0
26_44 0
26_45 0
26_46 0
26_47 0
27_28 0
27_29 0
27_30 0
27_31 0
27_32 0
27_33 0
27_34 0
27_35 0
27_36 0
27_37 0
27_38 0
27_39 0
27_40 0
27_41 0
27_42 0
27_43 0
27_44 0
27_45 0
27_46 0
27_47 0
28_29 0
28_30 0
28_31 0
28_32 0
28_33 1
28_34 0
28_35 0
28_36 0
28_37 0
28_38 0
28_39 0
28_40 0
28_41 0
28_42 0
28_43 0
28_44 0
28_45 0
28_46 0
28_47 0
29_30 0
29_31 0
29_32 0
29_33 0
29_34 0
29_35 1
29_36 0
29_37 0
29_38 0
29_39 0
29_40 0
29_41 0
29_42 1
29_43 0
29_44 0
29_45 0
29_46 0
29_47 0
30_31 0
30_32 0
30_33 0
30_34 0
30_35 0
30_36 0
30_37 1
30_38 0
30_39 0
30_40 0
30_41 0
30_42 0
30_43 1
30_44 0
30_45 0
30_46 0
30_47 0
31_32 0
31_33 0
31_34 0
31_35 0
31_36 0
31_37 0
31_38 1
31_39 0
31_40 0
31_41 0
31_42 0
31_43 0
31_44 0
31_45 0
31_46 0
31_47 0
32_33 0
32_34 0
32_35 0
32_36 0
32_37 0
32_38 0
32_39 0
32_40 0
32_41 0
32_42 0
32_43 0
32_44 0
32_45 1
32_46 0
32_47 0
33_34 0
33_35 0
33_36 0
33_37 0
33_38 0
33_39 0
33_40 1
33_41 0
33_42 0
33_43 0
33_44 0
33_45 0
33_46 0
33_47 0
34_35 0
34_36 0
34_37 0
34_38 0
34_39 0
34_40 0
34_41 0
34_42 0
34_43 0
34_44 1
34_45 0
34_46 0
34_47 0
35_36 0
35_37 0
35_38 0
35_39 0
35_40 0
35_41 0
35_42 0
35_43 0
35_44 0
35_45 1
35_46 0
35_47 0
36_37 0
36_38 0
36_39 0
36_40 0
36_41 0
36_42 0
36_43 0
36_44 0
36_45 0
36_46 0
36_47 0
37_38 0
37_39 0
37_40 0
37_41 0
37_42 0
37_43 0
37_44 0
37_45 0
37_46 0
37_47 0
38_39 0
38_40 0
38_41 0
38_42 0
38_43 0
38_44 0
38_45 0
38_46 0
38_47 1
39_40 0
39_41 0
39_42 0
39_43 0
39_44 0
39_45 0
39_46 0
39_47 0
40_41 0
40_42 0
40_43 0
40_44 0
40_45 0
40_46 0
40_47 0
41_42 0
41_43 0
41_44 0
41_45 0
41_46 0
41_47 0
42_43 0
42_44 0
42_45 0
42_46 0
42_47 0
43_44 0
43_45 0
43_46 0
43_47 0
44_45 0
44_46 0
44_47 0
45_46 0
45_47 0
46_47 0
